POSCAR generated by DeepH-dock 
1.0
  2.8268476586899998 2.8268476586899998 0.0
  0.0 2.8268476586899998 2.8268476586899998
  2.8268476586899998 0.0 2.8268476586899998
As Ga
1 1
Cartesian
  1.4134238293449999 1.4134238293449999 1.4134238293449999
  0.0 0.0 0.0
