DeepH-JAX transferred POSCAR!
1.0
  15.00000  0.00000  0.00000
  0.00000  15.00000  0.00000
  0.00000  0.00000  15.00000
O H
1 2
Cartesian
    4.99494  5.00453  4.98441
    5.06663  4.09875  4.57614
    5.01365  5.82933  5.67125
