DeepH-JAX transferred POSCAR!
1.0
  10.00000  0.00000  0.00000
  0.00000  10.00000  0.00000
  0.00000  0.00000  10.00000
O H
1 2
Cartesian
    5.03008  4.97709  5.05955
    4.26332  4.70030  4.40349
    5.25934  5.66329  4.65131
