DeepH-JAX transferred POSCAR!
1.0
  15.00000  0.00000  0.00000
  0.00000  15.00000  0.00000
  0.00000  0.00000  15.00000
O H
1 2
Cartesian
    5.05353  4.99621  5.04869
    5.14233  5.27979  4.01204
    4.00807  4.78043  5.21518
