DeepH-JAX transferred POSCAR!
1.0
  20.000000  0.000000  0.000000
  0.000000  20.000000  0.000000
  0.000000  0.000000  20.000000
C H
6 6
Cartesian
    11.4053330000  9.8983330000  9.9736670000
    10.6053330000  9.3963330000  8.8906670000
    9.2163330000  9.6303330000  8.9136670000
    8.6233330000  10.0983330000  10.0216670000
    9.3723330000  10.4893330000  11.1756670000
    10.7773330000  10.4873330000  11.0246670000
    12.5403330000  9.9353330000  9.7736670000
    11.0763330000  9.0983330000  7.9486670000
    8.4783330000  9.4093330000  8.1026670000
    7.5903330000  10.3253330000  9.9976670000
    8.8493330000  10.8003330000  12.0656670000
    11.3803330000  10.9243330000  11.8186670000
