H2 O1
1.0
  10.0000000000000000    0.0000000000000000    0.0000000000000000
   0.0000000000000000   10.0000000000000000    0.0000000000000000
   0.0000000000000000    0.0000000000000000   10.0000000000000000
O H
1 2
cartesian
   0.1970172293033246   -0.0806913598815523   -0.2747488331980653 O
  -0.6159860586221602    0.4816436741750402    0.0684031573176862 H
   0.4436781941885292   -0.3528410366414047    0.4703574726680221 H
