POSCAR generated by DeepH-dock 
1.0
  10.0  0.0  0.0
  0.0  10.0  0.0
  0.0  0.0  10.0
O H
1 2
Cartesian
    5.198357382509215  5.121142202831009  4.515059613745093
    4.317622075413578  5.679367208656467  4.602458051982389
    5.0456997079086285  4.605761980953603  5.148438920703521
