POSCAR generated by DeepH-dock 
1.0
  10.0  0.0  0.0
  0.0  10.0  0.0
  0.0  0.0  10.0
O H
1 2
Cartesian
    5.0195676792098345  5.053007286447327  4.402100584091342
    4.84157029977854  5.954620448148237  4.902459420191277
    4.758565242456272  4.553993629653639  5.012799841944251
