POSCAR generated by DeepH-dock 
1.0
  2.095683262940627 -3.629829887984893 0.0
  2.095683262940627 3.629829887984893 0.0
  0.0 0.0 29.92868720220962
Bi Se
2 3
Cartesian
  0.0 0.0 18.004050716797227
  2.0956832629406246 -1.2099432959949632 21.90086555281559
  2.0956832629406246 -1.2099432959949632 16.432295827227847
  2.0956832629406246 1.2099432959949634 19.952458134806395
  0.0 0.0 23.47262044238497
