DeepH-JAX transferred POSCAR!
1.0
  15.00000  0.00000  0.00000
  0.00000  15.00000  0.00000
  0.00000  0.00000  15.00000
O H
1 2
Cartesian
    4.96285  5.00319  4.93361
    5.43942  5.72463  5.51985
    5.15017  4.22479  5.53395
