DeepH-JAX transferred POSCAR!
1.0
  20.000000  0.000000  0.000000
  0.000000  20.000000  0.000000
  0.000000  0.000000  20.000000
C H
6 6
Cartesian
    10.0903330000  11.2193330000  9.2903330000
    11.2463330000  10.5463330000  9.7253330000
    11.1483330000  9.4003330000  10.4673330000
    9.8913330000  8.7953330000  10.7993330000
    8.7403330000  9.4523330000  10.2933330000
    8.8833330000  10.5863330000  9.4243330000
    10.2903330000  12.0603330000  8.6373330000
    12.2903330000  10.9073330000  9.4103330000
    12.1243330000  8.8983330000  10.7033330000
    9.7223330000  7.9233330000  11.3763330000
    7.7613330000  9.0443330000  10.4903330000
    7.9683330000  11.0813330000  8.9753330000
