POSCAR generated by DeepH-dock 
1.0
  2.095683262940627 -3.629829887984893 0.0
  2.095683262940627 3.629829887984893 0.0
  0.0 0.0 29.92868720220962
Bi Se
 2 3
Direct
  0.0 0.0 0.6015649999999999
  0.666666666666666 0.333333333333333 0.7317683333333331
  0.666666666666666 0.333333333333333 0.5490483333333331
  0.333333333333333 0.6666666666666661 0.6666666666666661
  0.0 0.0 0.784285
