DeepH-JAX transferred POSCAR!
1.0
  10.00000  0.00000  0.00000
  0.00000  10.00000  0.00000
  0.00000  0.00000  10.00000
O H
1 2
Cartesian
    1.03008  0.97709  1.05955
    0.26332  0.70030  0.40349
    1.25934  1.66329  0.65131
