DeepH-JAX transferred POSCAR!
1.0
  20.0  0.0  0.0
  0.0  20.0  0.0
  0.0  0.0  20.0
C O H
2 1 6
Cartesian
    9.85174  10.192939999999998  10.5464
    8.9266  9.5689  9.49738
    11.1283  10.1946  9.9338
    9.52818  11.25068  10.75808
    9.85892  9.59876  11.473899999999999
    8.75186  10.115540000000001  8.569139999999999
    8.9581  8.469959999999999  9.40172
    7.868159999999999  9.66634  9.80358
    11.68324  10.64778  10.522619999999998
