DeepH-JAX transferred POSCAR!
1.0
  15.00000  0.00000  0.00000
  0.00000  15.00000  0.00000
  0.00000  0.00000  15.00000
O H
1 2
Cartesian
    5.02552  5.01507  5.00526
    5.02815  4.01144  5.07618
    4.56680  5.74934  4.84037
