DeepH-JAX transferred POSCAR!
1.0
  15.00000  0.00000  0.00000
  0.00000  15.00000  0.00000
  0.00000  0.00000  15.00000
O H
1 2
Cartesian
    4.96071  4.99441  4.93571
    4.92366  5.37169  5.89412
    5.69990  4.71711  5.12625
