POSCAR generated by DeepH-dock 
1.0
  0.0 2.7150001952707563 2.7150001952707563
  2.7150001952707563 0.0 2.7150001952707563
  2.7150001952707563 2.7150001952707563 0.0
Si
 2
Direct
  0.0 0.0 0.0
  0.25 0.25 0.25
