DeepH-JAX transferred POSCAR!
1.0
  15.00000  0.00000  0.00000
  0.00000  15.00000  0.00000
  0.00000  0.00000  15.00000
O H
1 2
Cartesian
    4.96902  4.96418  4.93368
    4.54647  5.70783  5.45405
    5.94519  4.86068  5.59859
