POSCAR generated by DeepH-dock 
1.0
  0.0 2.7150001952707563 2.7150001952707563
  2.7150001952707563 0.0 2.7150001952707563
  2.7150001952707563 2.7150001952707563 0.0
Si
 2
Cartesian
  0.0 0.0 0.0
  1.3575000976353782 1.3575000976353782 1.3575000976353782
