DeepH-JAX transferred POSCAR!
1.0
  15.00000  0.00000  0.00000
  0.00000  15.00000  0.00000
  0.00000  0.00000  15.00000
O H
1 2
Cartesian
    5.01777  5.00334  5.00753
    4.35008  5.84918  5.26179
    5.36788  4.09783  4.61866
