DeepH-JAX transferred POSCAR!
1.0
  15.00000  0.00000  0.00000
  0.00000  15.00000  0.00000
  0.00000  0.00000  15.00000
O H
1 2
Cartesian
    5.05501  5.05516  5.03018
    4.37447  4.69771  5.49310
    4.75238  4.42683  4.02789
