H2 O1
1.0
  10.0000000000000000    0.0000000000000000    0.0000000000000000
   0.0000000000000000   10.0000000000000000    0.0000000000000000
   0.0000000000000000    0.0000000000000000   10.0000000000000000
O H
1 2
cartesian
  -0.2800906366711260   -0.0954295536279603   -0.2501671831234288 O
   0.2236838288350576   -0.5232194563748784    0.5611005977675305 H
   0.1039140226619107    0.6406336970061925   -0.2211534298949572 H
