DeepH-JAX transferred POSCAR!
1.0
  15.00000  0.00000  0.00000
  0.00000  15.00000  0.00000
  0.00000  0.00000  15.00000
O H
1 2
Cartesian
    4.95792  4.93580  5.01089
    4.97284  5.93801  5.06281
    5.69510  5.08094  4.76428
