POSCAR generated by DeepH-dock 
1.0
  29.999999999999996 0.0 0.0
  0.0 29.999999999999996 0.0
  0.0 0.0 29.999999999999996
Se
1
Cartesian
  14.999999999999998 14.999999999999998 14.999999999999998
