H2 O1
1.0
  10.0000000000000000    0.0000000000000000    0.0000000000000000
   0.0000000000000000   10.0000000000000000    0.0000000000000000
   0.0000000000000000    0.0000000000000000   10.0000000000000000
O H
1 2
cartesian
   0.1076932074058884    0.2448252508904975    0.4523878459516723 O
   0.6636635912734095    0.1057065860991050   -0.4231070167796068 H
  -0.6072925569309915   -0.0593284428105624    0.1584892705832144 H
