DeepH-JAX transferred POSCAR!
1.0
  15.00000  0.00000  0.00000
  0.00000  15.00000  0.00000
  0.00000  0.00000  15.00000
O H
1 2
Cartesian
    4.93377  4.99322  5.07682
    5.73771  5.49674  4.57786
    5.31358  4.61081  4.20289
