DeepH-JAX transferred POSCAR!
1.0
  20.0  0.0  0.0
  0.0  20.0  0.0
  0.0  0.0  20.0
C O H
2 1 6
Cartesian
    9.85738  9.884599999999999  9.327279999999998
    9.84402  11.21956  10.00812
    10.2027  8.94986  10.565999999999999
    8.90364  9.50326  8.89506
    10.65636  9.77722  8.56892
    9.454439999999998  11.204600000000001  11.045259999999999
    10.88068  11.45084  10.303819999999998
    9.41102  12.1358  9.49288
    11.03444  9.439300000000001  10.62966
