DeepH-JAX transferred POSCAR!
1.0
  20.000000  0.000000  0.000000
  0.000000  20.000000  0.000000
  0.000000  0.000000  20.000000
C H
6 6
Cartesian
    10.3786670000  9.9691670000  8.6730000000
    11.3406670000  10.2821670000  9.5730000000
    10.9636670000  10.1721670000  10.9460000000
    9.6506670000  10.0611670000  11.3560000000
    8.6166670000  9.7621670000  10.3980000000
    9.0496670000  9.7531670000  9.0540000000
    10.6746670000  9.7811670000  7.6490000000
    12.4026670000  10.5251670000  9.2690000000
    11.7446670000  10.3271670000  11.7200000000
    9.3656670000  10.0481670000  12.4350000000
    7.5936670000  9.4981670000  10.6370000000
    8.3216670000  9.5151670000  8.2950000000
