DeepH-JAX transferred POSCAR!
1.0
  15.00000  0.00000  0.00000
  0.00000  15.00000  0.00000
  0.00000  0.00000  15.00000
O H
1 2
Cartesian
    4.97230  5.09668  4.98447
    5.40532  4.07512  4.61009
    5.03440  4.39040  5.63640
