DeepH-JAX transferred POSCAR!
1.0
  20.0  0.0  0.0
  0.0  20.0  0.0
  0.0  0.0  20.0
C O H
2 1 6
Cartesian
    9.7513  9.92944  9.506
    10.90298  10.912279999999999  9.6765
    9.37558  9.21508  10.71862
    8.78756  10.32254  9.1711
    9.98514  9.04238  8.7989
    11.845939999999999  10.36008  9.891259999999999
    10.96734  11.274939999999999  8.72472
    10.79558  11.639759999999999  10.41132
    9.733039999999999  9.78872  11.338
