DeepH-JAX transferred POSCAR!
1.0
  20.0  0.0  0.0
  0.0  20.0  0.0
  0.0  0.0  20.0
C O H
2 1 6
Cartesian
    9.902  10.134920000000001  9.488499999999998
    8.756559999999999  10.058779999999999  10.55332
    11.200639999999998  9.77174  9.960099999999999
    9.6273  9.32776  8.712599999999998
    9.97458  11.195459999999999  9.23788
    8.849219999999999  10.994379999999998  11.154539999999999
    7.7519599999999995  10.114019999999998  10.110199999999999
    8.918259999999998  9.16434  11.12384
    11.806199999999999  10.51908  9.795939999999998
