POSCAR generated by DeepH-dock 
1.0
  3.16003 0.0 0.0
  -1.580015 2.73666498075 0.0
  0.0 0.0 37.92036
Mo S
1 2
Cartesian
  0.0 1.8244441737081 7.780115012390169
  1.580015 0.9122220710539 6.23850836002292
  1.580015 0.9122220710539 9.32473521156677
