POSCAR generated by DeepH-dock 
1.0
  1.782827279654224 -3.087947429480924 0.0
  1.782827279654224 3.087947429480924 0.0
  0.0 0.0 14.64777841
Te Mo
2 1
Cartesian
  1.7828272796542224 -1.029315809826974 1.8723184388901228
  1.7828272796542224 -1.029315809826974 5.451570766109862
  1.7828272796542224 1.029315809826974 3.6619446025
