POSCAR generated by DeepH-dock 
1.0
  10.0  0.0  0.0
  0.0  10.0  0.0
  0.0  0.0  10.0
O H
1 2
Cartesian
    5.3235488152039  5.14048894390205  4.722259859351721
    4.542161266580763  5.802845874946692  4.935953846290634
    4.8505123623963025  4.463477367763466  4.632915999520414
