DeepH-JAX transferred POSCAR!
1.0
  15.00000  0.00000  0.00000
  0.00000  15.00000  0.00000
  0.00000  0.00000  15.00000
O H
1 2
Cartesian
    4.98446  5.01797  5.02573
    4.52955  4.28878  4.89483
    5.71714  5.42601  4.69680
